*******************************************************************************
* Problem type: SC-CP16
* Input file: ../instances/bp-100-20-3-10-10192.dat
* 3 objectives
* 100 variables
* 20 constraints
*******************************************************************************

min: +5 x1 +1 x2 +2 x3 ;

+1 x3 >= 1 ;
+1 x1 >= 1 ;
